N = 10;
lengths = [295, 295, 295, 295, 295, 295, 295, 295, 295, 295];
widths = [295, 295, 295, 295, 295, 295, 295, 295, 295, 295];
heights = [75, 70, 75, 75, 50, 45, 75, 75, 68, 35];
reds = [197, 132, 155, 111, 71, 75, 37, 51, 161, 226];
greens = [215, 248, 244, 71, 48, 158, 169, 181, 104, 133];
blues = [20, 207, 183, 144, 128, 50, 241, 222, 244, 31];
